p5/Assignment2/Q2-TSP/TSP_EUC_PROBLEMS/a10testbig.tsp
NAME : a10testbig
COMMENT : test problem
TYPE : TSP
DIMENSION: 9
EDGE_WEIGHT_TYPE : EUC_2D
NODE_COORD_SECTION
  1 0 0
  2 1000 1000
  3 0 1000
  4 1000 0
  5 500 0
  6 0 500
  7 500 1000
  8 1000 500
  9 500 500
EOF