p5/Assignment2/Q2-TSP/TSP_EUC_SOLUTIONS/a10testbig.sol
a10testbig
4206
1
5
4
8
9
6
3
7
2